unsat
(define-fun inv-f ((conf_0 Int) (sn Int) (x Int) (tmp Int) (conf_0_0 Int) (conf_0_1 Int) (conf_0_2 Int) (conf_0_3 Int) (sn_0 Int) (sn_1 Int) (sn_2 Int) (sn_3 Int) (x_0 Int) (x_1 Int) (x_2 Int) (x_3 Int)) Bool (and (or (not (= conf_0 conf_0_1)) (not (= sn sn_2)) (not (= x x_2)) (= sn_2 x_2) (= sn_2 (- 1))) (>= sn 0)))
1.30user 0.01system 0:01.31elapsed 99%CPU (0avgtext+0avgdata 41740maxresident)k
0inputs+8outputs (0major+5149minor)pagefaults 0swaps
